10 10 4

0 403 151 53 182 321 152 278 138 332 
94 0 169 118 122 114 203 261 452 93 
332 251 0 405 95 197 398 453 385 215 
229 263 337 0 110 372 194 321 53 465 
423 282 103 254 0 82 429 78 361 249 
438 121 200 237 159 0 402 141 411 305 
490 363 396 411 298 365 0 247 115 237 
392 386 447 112 308 435 372 0 61 468 
57 296 84 256 233 363 163 421 0 472 
271 268 139 282 464 452 177 374 457 0 

363.66 0 7
363.66 1 8
363.66 2 5
363.66 3 4
363.66 4 0
363.66 5 1
363.66 6 5
363.66 7 8
363.66 8 9
363.66 9 6

